NAME : D1.322530131.tour
COMMENT : Cost = 0_322530131
COMMENT : Found by LKH [Keld Helsgaun] Sun Sep 10 07:53:50 2017
TYPE : TOUR
DIMENSION : 50
TOUR_SECTION
1
21
27
33
7
4
43
32
24
6
5
49
29
17
10
46
20
36
39
3
41
35
19
8
45
30
37
23
42
15
31
12
40
11
26
34
48
14
25
9
44
16
47
38
22
50
13
28
18
2
-1
EOF
